words_hard_train/3132.qaiger
aag 175 23 0 1 152
2
4
10
12
44
46
82
86
96
110
112
144
158
160
192
206
208
240
254
256
288
298
322
350
6 2 4
8 7 4
14 11 13
16 10 12
18 15 17
20 7 19
22 6 18
24 21 23
26 4 12
28 5 13
30 27 29
32 25 31
34 24 30
36 33 35
38 8 36
40 39 35
42 23 17
48 45 47
50 44 46
52 49 51
54 42 53
56 43 52
58 55 57
60 29 46
62 28 47
64 61 63
66 59 65
68 58 64
70 67 69
72 40 71
74 41 70
76 73 75
78 9 37
80 79 39
84 2 82
88 84 86
90 81 89
92 85 87
94 91 93
98 95 97
100 76 99
102 94 96
104 101 103
106 75 69
108 57 51
114 111 113
116 110 112
118 115 117
120 108 119
122 109 118
124 121 123
126 63 112
128 62 113
130 127 129
132 125 131
134 124 130
136 133 135
138 106 137
140 107 136
142 139 141
146 142 144
148 104 147
150 143 145
152 149 151
154 141 135
156 123 117
162 159 161
164 158 160
166 163 165
168 156 167
170 157 166
172 169 171
174 129 160
176 128 161
178 175 177
180 173 179
182 172 178
184 181 183
186 154 185
188 155 184
190 187 189
194 191 193
196 152 195
198 190 192
200 197 199
202 189 183
204 171 165
210 207 209
212 206 208
214 211 213
216 204 215
218 205 214
220 217 219
222 177 208
224 176 209
226 223 225
228 221 227
230 220 226
232 229 231
234 202 233
236 203 232
238 235 237
242 238 240
244 200 243
246 239 241
248 245 247
250 237 231
252 219 213
258 255 257
260 254 256
262 259 261
264 252 263
266 253 262
268 265 267
270 225 256
272 224 257
274 271 273
276 269 275
278 268 274
280 277 279
282 250 281
284 251 280
286 283 285
290 287 289
292 248 291
294 286 288
296 293 295
300 273 299
302 272 298
304 301 303
306 267 261
308 304 307
310 305 306
312 309 311
314 285 279
316 312 314
318 313 315
320 317 319
324 320 322
326 297 325
328 321 323
330 327 329
332 83 322
334 97 289
336 145 241
338 334 336
340 332 338
342 87 193
344 340 342
346 331 345
348 330 344
350 347 349
i0 2 y1[0]
i1 2 y2[0]
i2 2 y1[1]
i3 2 y2[1]
i4 2 y1[2]
i5 2 y2[2]
i6 1 x1[0]
i7 1 x1[1]
i8 1 x1[2]
i9 2 y1[3]
i10 2 y2[3]
i11 1 x1[3]
i12 2 y1[4]
i13 2 y2[4]
i14 1 x1[4]
i15 2 y1[5]
i16 2 y2[5]
i17 1 x1[5]
i18 2 y1[6]
i19 2 y2[6]
i20 1 x1[6]
i21 2 y1[7]
i22 1 x1[7]
o0 bv[0]
c
simplified
  >
    unary minus
      1 x1
    subtract
      add
        2 y1
        2 y2
      2 y2
