words_hard_train/3132.qaiger.qdimacs
p cnf 175 457
a 96 161 72 41 43 48 144 120 0
e 1 2 3 4 5 6 7 8 9 10 11 12 13 14 15 16 17 18 19 20 21 22 23 24 25 26 27 28 29 30 31 32 33 34 35 36 37 38 39 40 42 44 45 46 47 49 50 51 52 53 54 55 56 57 58 59 60 61 62 63 64 65 66 67 68 69 70 71 73 74 75 76 77 78 79 80 81 82 83 84 85 86 87 88 89 90 91 92 93 94 95 97 98 99 100 101 102 103 104 105 106 107 108 109 110 111 112 113 114 115 116 117 118 119 121 122 123 124 125 126 127 128 129 130 131 132 133 134 135 136 137 138 139 140 141 142 143 145 146 147 148 149 150 151 152 153 154 155 156 157 158 159 160 162 163 164 165 166 167 168 169 170 171 172 173 174 175 0
-1 -2 3 0
1 -3 0
2 -3 0
3 -2 4 0
-3 -4 0
2 -4 0
5 6 7 0
-5 -7 0
-6 -7 0
-5 -6 8 0
5 -8 0
6 -8 0
7 8 9 0
-7 -9 0
-8 -9 0
3 9 10 0
-3 -10 0
-9 -10 0
-3 -9 11 0
3 -11 0
9 -11 0
10 11 12 0
-10 -12 0
-11 -12 0
-2 -6 13 0
2 -13 0
6 -13 0
2 6 14 0
-2 -14 0
-6 -14 0
13 14 15 0
-13 -15 0
-14 -15 0
12 15 16 0
-12 -16 0
-15 -16 0
-12 -15 17 0
12 -17 0
15 -17 0
16 17 18 0
-16 -18 0
-17 -18 0
-4 -18 19 0
4 -19 0
18 -19 0
19 17 20 0
-19 -20 0
-17 -20 0
11 8 21 0
-11 -21 0
-8 -21 0
22 23 24 0
-22 -24 0
-23 -24 0
-22 -23 25 0
22 -25 0
23 -25 0
24 25 26 0
-24 -26 0
-25 -26 0
-21 26 27 0
21 -27 0
-26 -27 0
21 -26 28 0
-21 -28 0
26 -28 0
27 28 29 0
-27 -29 0
-28 -29 0
14 -23 30 0
-14 -30 0
23 -30 0
-14 23 31 0
14 -31 0
-23 -31 0
30 31 32 0
-30 -32 0
-31 -32 0
29 32 33 0
-29 -33 0
-32 -33 0
-29 -32 34 0
29 -34 0
32 -34 0
33 34 35 0
-33 -35 0
-34 -35 0
-20 35 36 0
20 -36 0
-35 -36 0
20 -35 37 0
-20 -37 0
35 -37 0
36 37 38 0
-36 -38 0
-37 -38 0
4 18 39 0
-4 -39 0
-18 -39 0
39 19 40 0
-39 -40 0
-19 -40 0
-1 -41 42 0
1 -42 0
41 -42 0
-42 -43 44 0
42 -44 0
43 -44 0
40 44 45 0
-40 -45 0
-44 -45 0
42 43 46 0
-42 -46 0
-43 -46 0
45 46 47 0
-45 -47 0
-46 -47 0
47 48 49 0
-47 -49 0
-48 -49 0
-38 49 50 0
38 -50 0
-49 -50 0
-47 -48 51 0
47 -51 0
48 -51 0
50 51 52 0
-50 -52 0
-51 -52 0
37 34 53 0
-37 -53 0
-34 -53 0
28 25 54 0
-28 -54 0
-25 -54 0
55 56 57 0
-55 -57 0
-56 -57 0
-55 -56 58 0
55 -58 0
56 -58 0
57 58 59 0
-57 -59 0
-58 -59 0
-54 59 60 0
54 -60 0
-59 -60 0
54 -59 61 0
-54 -61 0
59 -61 0
60 61 62 0
-60 -62 0
-61 -62 0
31 -56 63 0
-31 -63 0
56 -63 0
-31 56 64 0
31 -64 0
-56 -64 0
63 64 65 0
-63 -65 0
-64 -65 0
62 65 66 0
-62 -66 0
-65 -66 0
-62 -65 67 0
62 -67 0
65 -67 0
66 67 68 0
-66 -68 0
-67 -68 0
-53 68 69 0
53 -69 0
-68 -69 0
53 -68 70 0
-53 -70 0
68 -70 0
69 70 71 0
-69 -71 0
-70 -71 0
-71 -72 73 0
71 -73 0
72 -73 0
-52 73 74 0
52 -74 0
-73 -74 0
71 72 75 0
-71 -75 0
-72 -75 0
74 75 76 0
-74 -76 0
-75 -76 0
70 67 77 0
-70 -77 0
-67 -77 0
61 58 78 0
-61 -78 0
-58 -78 0
79 80 81 0
-79 -81 0
-80 -81 0
-79 -80 82 0
79 -82 0
80 -82 0
81 82 83 0
-81 -83 0
-82 -83 0
-78 83 84 0
78 -84 0
-83 -84 0
78 -83 85 0
-78 -85 0
83 -85 0
84 85 86 0
-84 -86 0
-85 -86 0
64 -80 87 0
-64 -87 0
80 -87 0
-64 80 88 0
64 -88 0
-80 -88 0
87 88 89 0
-87 -89 0
-88 -89 0
86 89 90 0
-86 -90 0
-89 -90 0
-86 -89 91 0
86 -91 0
89 -91 0
90 91 92 0
-90 -92 0
-91 -92 0
-77 92 93 0
77 -93 0
-92 -93 0
77 -92 94 0
-77 -94 0
92 -94 0
93 94 95 0
-93 -95 0
-94 -95 0
95 96 97 0
-95 -97 0
-96 -97 0
-76 97 98 0
76 -98 0
-97 -98 0
-95 -96 99 0
95 -99 0
96 -99 0
98 99 100 0
-98 -100 0
-99 -100 0
94 91 101 0
-94 -101 0
-91 -101 0
85 82 102 0
-85 -102 0
-82 -102 0
103 104 105 0
-103 -105 0
-104 -105 0
-103 -104 106 0
103 -106 0
104 -106 0
105 106 107 0
-105 -107 0
-106 -107 0
-102 107 108 0
102 -108 0
-107 -108 0
102 -107 109 0
-102 -109 0
107 -109 0
108 109 110 0
-108 -110 0
-109 -110 0
88 -104 111 0
-88 -111 0
104 -111 0
-88 104 112 0
88 -112 0
-104 -112 0
111 112 113 0
-111 -113 0
-112 -113 0
110 113 114 0
-110 -114 0
-113 -114 0
-110 -113 115 0
110 -115 0
113 -115 0
114 115 116 0
-114 -116 0
-115 -116 0
-101 116 117 0
101 -117 0
-116 -117 0
101 -116 118 0
-101 -118 0
116 -118 0
117 118 119 0
-117 -119 0
-118 -119 0
-119 -120 121 0
119 -121 0
120 -121 0
-100 121 122 0
100 -122 0
-121 -122 0
119 120 123 0
-119 -123 0
-120 -123 0
122 123 124 0
-122 -124 0
-123 -124 0
118 115 125 0
-118 -125 0
-115 -125 0
109 106 126 0
-109 -126 0
-106 -126 0
127 128 129 0
-127 -129 0
-128 -129 0
-127 -128 130 0
127 -130 0
128 -130 0
129 130 131 0
-129 -131 0
-130 -131 0
-126 131 132 0
126 -132 0
-131 -132 0
126 -131 133 0
-126 -133 0
131 -133 0
132 133 134 0
-132 -134 0
-133 -134 0
112 -128 135 0
-112 -135 0
128 -135 0
-112 128 136 0
112 -136 0
-128 -136 0
135 136 137 0
-135 -137 0
-136 -137 0
134 137 138 0
-134 -138 0
-137 -138 0
-134 -137 139 0
134 -139 0
137 -139 0
138 139 140 0
-138 -140 0
-139 -140 0
-125 140 141 0
125 -141 0
-140 -141 0
125 -140 142 0
-125 -142 0
140 -142 0
141 142 143 0
-141 -143 0
-142 -143 0
143 144 145 0
-143 -145 0
-144 -145 0
-124 145 146 0
124 -146 0
-145 -146 0
-143 -144 147 0
143 -147 0
144 -147 0
146 147 148 0
-146 -148 0
-147 -148 0
136 149 150 0
-136 -150 0
-149 -150 0
-136 -149 151 0
136 -151 0
149 -151 0
150 151 152 0
-150 -152 0
-151 -152 0
133 130 153 0
-133 -153 0
-130 -153 0
-152 153 154 0
152 -154 0
-153 -154 0
152 -153 155 0
-152 -155 0
153 -155 0
154 155 156 0
-154 -156 0
-155 -156 0
142 139 157 0
-142 -157 0
-139 -157 0
-156 -157 158 0
156 -158 0
157 -158 0
156 157 159 0
-156 -159 0
-157 -159 0
158 159 160 0
-158 -160 0
-159 -160 0
-160 -161 162 0
160 -162 0
161 -162 0
148 162 163 0
-148 -163 0
-162 -163 0
160 161 164 0
-160 -164 0
-161 -164 0
163 164 165 0
-163 -165 0
-164 -165 0
41 -161 166 0
-41 -166 0
161 -166 0
48 144 167 0
-48 -167 0
-144 -167 0
72 120 168 0
-72 -168 0
-120 -168 0
-167 -168 169 0
167 -169 0
168 -169 0
-166 -169 170 0
166 -170 0
169 -170 0
43 96 171 0
-43 -171 0
-96 -171 0
-170 -171 172 0
170 -172 0
171 -172 0
165 172 173 0
-165 -173 0
-172 -173 0
-165 -172 174 0
165 -174 0
172 -174 0
173 174 175 0
-173 -175 0
-174 -175 0
175 0
